
Gurobi 9.5.0 (linux64) logging started Sat Nov 27 16:31:05 2021

Set parameter LogFile to value "results/max2cut_numv200/max2cut_numv200_seed1_BQO_log.txt"
Gurobi Optimizer version 9.5.0 build v9.5.0rc5 (linux64)
Thread count: 20 physical cores, 40 logical processors, using up to 10 threads
Optimize a model with 181 rows, 362 columns and 362 nonzeros
Model fingerprint: 0x7df070ec
Model has 1026 quadratic objective terms
Variable types: 0 continuous, 362 integer (362 binary)
Coefficient statistics:
  Matrix range     [1e+00, 1e+00]
  Objective range  [0e+00, 0e+00]
  QObjective range [2e+00, 8e+00]
  Bounds range     [1e+00, 1e+00]
  RHS range        [1e+00, 1e+00]
Found heuristic solution: objective -0.0000000
Presolve removed 181 rows and 183 columns
Presolve time: 0.00s
Presolved: 508 rows, 687 columns, 1524 nonzeros
Variable types: 0 continuous, 687 integer (687 binary)
Found heuristic solution: objective 61.0000000

Root relaxation: objective -3.055000e+02, 196 iterations, 0.00 seconds (0.00 work units)

    Nodes    |    Current Node    |     Objective Bounds      |     Work
 Expl Unexpl |  Obj  Depth IntInf | Incumbent    BestBd   Gap | It/Node Time

     0     0  305.50000    0  179   61.00000  305.50000   401%     -    0s
H    0     0                      73.0000000  305.50000   318%     -    0s
H    0     0                     121.0000000  305.50000   152%     -    0s
H    0     0                     124.0000000  295.50000   138%     -    0s
     0     0  174.33333    0  254  124.00000  174.33333  40.6%     -    0s
H    0     0                     133.0000000  174.33333  31.1%     -    0s
     0     0  174.33333    0  254  133.00000  174.33333  31.1%     -    0s
     0     0  165.50000    0  145  133.00000  165.50000  24.4%     -    0s
H    0     0                     144.0000000  165.50000  14.9%     -    0s
     0     0  165.12857    0  159  144.00000  165.12857  14.7%     -    0s
H    0     0                     157.0000000  165.12857  5.18%     -    0s
     0     0  164.50000    0   93  157.00000  164.50000  4.78%     -    0s
H    0     0                     161.0000000  164.50000  2.17%     -    0s
     0     0  164.50000    0   83  161.00000  164.50000  2.17%     -    0s
H    0     0                     163.0000000  164.50000  0.92%     -    0s
     0     0     cutoff    0       163.00000  163.00000  0.00%     -    0s

Cutting planes:
  Gomory: 35
  MIR: 145
  Zero half: 81
  RLT: 69
  BQP: 16

Explored 1 nodes (1195 simplex iterations) in 0.14 seconds (0.04 work units)
Thread count was 10 (of 40 available processors)

Solution count 10: 163 161 157 ... 3

Optimal solution found (tolerance 0.00e+00)
Best objective 1.630000000000e+02, best bound 1.630000000000e+02, gap 0.0000%
